p cnf 76 212
-36 -37 0
-36 -38 0
-36 -39 0
-36 -40 0
-36 -41 0
-36 -42 0
-36 -43 0
-37 -38 0
-37 -39 0
-37 -40 0
-37 -41 0
-37 -42 0
-37 -43 0
-38 -39 0
-38 -40 0
-38 -41 0
-38 -42 0
-38 -43 0
-39 -40 0
-39 -41 0
-39 -42 0
-39 -43 0
-40 -41 0
-40 -42 0
-40 -43 0
-41 -42 0
-41 -43 0
-42 -43 0
36 37 38 39 40 41 42 43 0
1 -36 0
9 -37 0
10 -38 0
11 -39 0
12 -40 0
13 -41 0
14 -42 0
15 -43 0
-44 -45 0
-44 -46 0
-45 -46 0
44 45 46 0
-47 -48 0
-47 -49 0
-47 -50 0
-48 -49 0
-48 -50 0
-49 -50 0
47 48 49 50 0
-51 -52 0
-51 -53 0
-52 -53 0
51 52 53 0
-54 -55 0
-54 -56 0
-54 -57 0
-55 -56 0
-55 -57 0
-56 -57 0
54 55 56 57 0
-58 -59 0
-58 -60 0
-59 -60 0
58 59 60 0
-61 -62 0
-61 -63 0
-61 -64 0
-62 -63 0
-62 -64 0
-63 -64 0
61 62 63 64 0
-65 -66 0
-65 -67 0
-65 -68 0
-66 -67 0
-66 -68 0
-67 -68 0
65 66 67 68 0
-69 -70 0
-69 -71 0
-69 -72 0
-70 -71 0
-70 -72 0
-71 -72 0
69 70 71 72 0
-73 -74 0
-73 -75 0
-73 -76 0
-74 -75 0
-74 -76 0
-75 -76 0
73 74 75 76 0
-1 -44 -48 0
-1 -45 -49 0
-1 -46 -50 0
-2 -44 -52 0
-2 -45 -53 0
-3 -44 -55 0
-3 -45 -56 0
-3 -46 -57 0
-4 -44 -59 0
-4 -45 -60 0
-5 -44 -62 0
-5 -45 -63 0
-5 -46 -64 0
-6 -44 -66 0
-6 -45 -67 0
-6 -46 -68 0
-7 -44 -70 0
-7 -45 -71 0
-7 -46 -72 0
-8 -44 -74 0
-8 -45 -75 0
-8 -46 -76 0
-9 -47 -51 0
-9 -48 -52 0
-9 -49 -53 0
-10 -47 -54 0
-10 -48 -55 0
-10 -49 -56 0
-10 -50 -57 0
-11 -47 -58 0
-11 -48 -59 0
-11 -49 -60 0
-12 -47 -61 0
-12 -48 -62 0
-12 -49 -63 0
-12 -50 -64 0
-13 -47 -65 0
-13 -48 -66 0
-13 -49 -67 0
-13 -50 -68 0
-14 -47 -69 0
-14 -48 -70 0
-14 -49 -71 0
-14 -50 -72 0
-15 -47 -73 0
-15 -48 -74 0
-15 -49 -75 0
-15 -50 -76 0
-16 -51 -54 0
-16 -52 -55 0
-16 -53 -56 0
-17 -51 -58 0
-17 -52 -59 0
-17 -53 -60 0
-18 -51 -61 0
-18 -52 -62 0
-18 -53 -63 0
-19 -51 -65 0
-19 -52 -66 0
-19 -53 -67 0
-20 -51 -69 0
-20 -52 -70 0
-20 -53 -71 0
-21 -51 -73 0
-21 -52 -74 0
-21 -53 -75 0
-22 -54 -58 0
-22 -55 -59 0
-22 -56 -60 0
-23 -54 -61 0
-23 -55 -62 0
-23 -56 -63 0
-23 -57 -64 0
-24 -54 -65 0
-24 -55 -66 0
-24 -56 -67 0
-24 -57 -68 0
-25 -54 -69 0
-25 -55 -70 0
-25 -56 -71 0
-25 -57 -72 0
-26 -54 -73 0
-26 -55 -74 0
-26 -56 -75 0
-26 -57 -76 0
-27 -58 -61 0
-27 -59 -62 0
-27 -60 -63 0
-28 -58 -65 0
-28 -59 -66 0
-28 -60 -67 0
-58 -69 0
-59 -70 0
-60 -71 0
-29 -58 -73 0
-29 -59 -74 0
-29 -60 -75 0
-30 -61 -65 0
-30 -62 -66 0
-30 -63 -67 0
-30 -64 -68 0
-31 -61 -69 0
-31 -62 -70 0
-31 -63 -71 0
-31 -64 -72 0
-32 -61 -73 0
-32 -62 -74 0
-32 -63 -75 0
-32 -64 -76 0
-33 -65 -69 0
-33 -66 -70 0
-33 -67 -71 0
-33 -68 -72 0
-34 -65 -73 0
-34 -66 -74 0
-34 -67 -75 0
-34 -68 -76 0
-35 -69 -73 0
-35 -70 -74 0
-35 -71 -75 0
-35 -72 -76 0
